LatticeConstant 1.0 Ang
%block LatticeVectors
 22.68000000 0.00000000 0.00000000
 -11.34000000 19.64145616 0.00000000
 0.00000000 0.00000000 20.00000000
%endblock LatticeVectors

NumberOfAtoms 144
AtomicCoordinatesFormat Ang
%block AtomicCoordinatesAndAtomicSpecies
 -0.00000100  0.00000000 -0.36972300 1 #   1: Si
  1.92422400  1.11094800  0.36972300 1 #   2: Si
 -0.00000000  0.00000000 -1.87701200 2 #   3: H
  1.92422400  1.11094800  1.87701200 2 #   4: H
  3.84844900 -0.00000300 -0.36972300 1 #   5: Si
  5.77267300  1.11094400  0.36972400 1 #   6: Si
  3.84844900 -0.00000400 -1.87701200 2 #   7: H
  5.77267300  1.11094400  1.87701300 2 #   8: H
  7.69689800 -0.00000700 -0.36972200 1 #   9: Si
  9.62112300  1.11094000  0.36972400 1 #  10: Si
  7.69689800 -0.00000800 -1.87701100 2 #  11: H
  9.62112200  1.11094100  1.87701300 2 #  12: H
 11.54534700 -0.00001100 -0.36972200 1 #  13: Si
 13.46957200  1.11093700  0.36972500 1 #  14: Si
 11.54534700 -0.00001100 -1.87701100 2 #  15: H
 13.46957100  1.11093700  1.87701400 2 #  16: H
 15.39379600 -0.00001500 -0.36972100 1 #  17: Si
 17.31802100  1.11093300  0.36972500 1 #  18: Si
 15.39379700 -0.00001500 -1.87701000 2 #  19: H
 17.31802100  1.11093300  1.87701400 2 #  20: H
 19.24224600 -0.00001900 -0.36972100 1 #  21: Si
 21.16647000  1.11092900  0.36972600 1 #  22: Si
 19.24224600 -0.00001900 -1.87701000 2 #  23: H
 21.16647000  1.11092900  1.87701500 2 #  24: H
 -1.92422800  3.33285300 -0.36972400 1 #  25: Si
 -0.00000400  4.44380100  0.36972300 1 #  26: Si
 -1.92422800  3.33285300 -1.87701300 2 #  27: H
 -0.00000400  4.44380100  1.87701200 2 #  28: H
  1.92422100  3.33284900 -0.36972300 1 #  29: Si
  3.84844500  4.44379700  0.36972300 1 #  30: Si
  1.92422100  3.33284900 -1.87701200 2 #  31: H
  3.84844500  4.44379700  1.87701200 2 #  32: H
  5.77267000  3.33284600 -0.36972300 1 #  33: Si
  7.69689500  4.44379300  0.36972400 1 #  34: Si
  5.77267000  3.33284500 -1.87701200 2 #  35: H
  7.69689400  4.44379400  1.87701300 2 #  36: H
  9.62111900  3.33284200 -0.36972200 1 #  37: Si
 11.54534400  4.44379000  0.36972400 1 #  38: Si
  9.62112000  3.33284200 -1.87701100 2 #  39: H
 11.54534300  4.44379000  1.87701300 2 #  40: H
 13.46956800  3.33283800 -0.36972200 1 #  41: Si
 15.39379300  4.44378600  0.36972500 1 #  42: Si
 13.46956900  3.33283800 -1.87701100 2 #  43: H
 15.39379300  4.44378600  1.87701400 2 #  44: H
 17.31801800  3.33283400 -0.36972100 1 #  45: Si
 19.24224200  4.44378200  0.36972500 1 #  46: Si
 17.31801800  3.33283400 -1.87701000 2 #  47: H
 19.24224200  4.44378200  1.87701400 2 #  48: H
 -3.84845600  6.66570600 -0.36972400 1 #  49: Si
 -1.92423200  7.77665400  0.36972300 1 #  50: Si
 -3.84845600  6.66570600 -1.87701300 2 #  51: H
 -1.92423200  7.77665400  1.87701100 2 #  52: H
 -0.00000700  6.66570200 -0.36972400 1 #  53: Si
  1.92421700  7.77665000  0.36972300 1 #  54: Si
 -0.00000700  6.66570200 -1.87701300 2 #  55: H
  1.92421700  7.77665000  1.87701200 2 #  56: H
  3.84844200  6.66569800 -0.36972300 1 #  57: Si
  5.77266700  7.77664600  0.36972300 1 #  58: Si
  3.84844200  6.66569800 -1.87701200 2 #  59: H
  5.77266600  7.77664600  1.87701200 2 #  60: H
  7.69689100  6.66569500 -0.36972300 1 #  61: Si
  9.62111600  7.77664200  0.36972400 1 #  62: Si
  7.69689200  6.66569400 -1.87701200 2 #  63: H
  9.62111600  7.77664300  1.87701300 2 #  64: H
 11.54534000  6.66569100 -0.36972200 1 #  65: Si
 13.46956500  7.77663900  0.36972400 1 #  66: Si
 11.54534100  6.66569100 -1.87701100 2 #  67: H
 13.46956500  7.77663900  1.87701300 2 #  68: H
 15.39379000  6.66568700 -0.36972200 1 #  69: Si
 17.31801400  7.77663500  0.36972500 1 #  70: Si
 15.39379000  6.66568700 -1.87701100 2 #  71: H
 17.31801400  7.77663500  1.87701400 2 #  72: H
 -5.77268400  9.99855900 -0.36972500 1 #  73: Si
 -3.84846000 11.10950700  0.36972200 1 #  74: Si
 -5.77268400  9.99855900 -1.87701400 2 #  75: H
 -3.84846000 11.10950700  1.87701100 2 #  76: H
 -1.92423500  9.99855500 -0.36972400 1 #  77: Si
 -0.00001000 11.10950300  0.36972300 1 #  78: Si
 -1.92423500  9.99855500 -1.87701300 2 #  79: H
 -0.00001100 11.10950300  1.87701100 2 #  80: H
  1.92421400  9.99855100 -0.36972400 1 #  81: Si
  3.84843900 11.10949900  0.36972300 1 #  82: Si
  1.92421500  9.99855100 -1.87701300 2 #  83: H
  3.84843800 11.10949900  1.87701200 2 #  84: H
  5.77266300  9.99854800 -0.36972300 1 #  85: Si
  7.69688800 11.10949500  0.36972300 1 #  86: Si
  5.77266400  9.99854700 -1.87701200 2 #  87: H
  7.69688800 11.10949500  1.87701200 2 #  88: H
  9.62111300  9.99854400 -0.36972300 1 #  89: Si
 11.54533700 11.10949100  0.36972400 1 #  90: Si
  9.62111300  9.99854300 -1.87701200 2 #  91: H
 11.54533700 11.10949200  1.87701300 2 #  92: H
 13.46956200  9.99854000 -0.36972200 1 #  93: Si
 15.39378600 11.10948800  0.36972400 1 #  94: Si
 13.46956200  9.99854000 -1.87701100 2 #  95: H
 15.39378600 11.10948800  1.87701300 2 #  96: H
 -7.69691200 13.33141200 -0.36972500 1 #  97: Si
 -5.77268800 14.44236000  0.36972200 1 #  98: Si
 -7.69691200 13.33141200 -1.87701400 2 #  99: H
 -5.77268800 14.44236000  1.87701100 2 # 100: H
 -3.84846300 13.33140800 -0.36972500 1 # 101: Si
 -1.92423800 14.44235600  0.36972200 1 # 102: Si
 -3.84846300 13.33140800 -1.87701400 2 # 103: H
 -1.92423900 14.44235600  1.87701100 2 # 104: H
 -0.00001400 13.33140400 -0.36972400 1 # 105: Si
  1.92421100 14.44235200  0.36972300 1 # 106: Si
 -0.00001300 13.33140400 -1.87701300 2 # 107: H
  1.92421000 14.44235200  1.87701100 2 # 108: H
  3.84843500 13.33140000 -0.36972400 1 # 109: Si
  5.77266000 14.44234800  0.36972300 1 # 110: Si
  3.84843600 13.33140000 -1.87701300 2 # 111: H
  5.77266000 14.44234800  1.87701200 2 # 112: H
  7.69688500 13.33139700 -0.36972300 1 # 113: Si
  9.62110900 14.44234400  0.36972400 1 # 114: Si
  7.69688500 13.33139600 -1.87701200 2 # 115: H
  9.62110900 14.44234500  1.87701200 2 # 116: H
 11.54533400 13.33139300 -0.36972300 1 # 117: Si
 13.46955900 14.44234000  0.36972400 1 # 118: Si
 11.54533400 13.33139300 -1.87701200 2 # 119: H
 13.46955800 14.44234100  1.87701300 2 # 120: H
 -9.62114000 16.66426500 -0.36972600 1 # 121: Si
 -7.69691600 17.77521200  0.36972100 1 # 122: Si
 -9.62114000 16.66426400 -1.87701500 2 # 123: H
 -7.69691600 17.77521300  1.87701000 2 # 124: H
 -5.77269100 16.66426100 -0.36972500 1 # 125: Si
 -3.84846600 17.77520900  0.36972200 1 # 126: Si
 -5.77269100 16.66426100 -1.87701400 2 # 127: H
 -3.84846700 17.77520900  1.87701100 2 # 128: H
 -1.92424200 16.66425700 -0.36972500 1 # 129: Si
 -0.00001700 17.77520500  0.36972200 1 # 130: Si
 -1.92424100 16.66425700 -1.87701400 2 # 131: H
 -0.00001700 17.77520500  1.87701100 2 # 132: H
  1.92420700 16.66425300 -0.36972400 1 # 133: Si
  3.84843200 17.77520100  0.36972300 1 # 134: Si
  1.92420800 16.66425300 -1.87701300 2 # 135: H
  3.84843200 17.77520100  1.87701100 2 # 136: H
  5.77265700 16.66424900 -0.36972400 1 # 137: Si
  7.69688100 17.77519700  0.36972300 1 # 138: Si
  5.77265700 16.66424900 -1.87701300 2 # 139: H
  7.69688100 17.77519700  1.87701200 2 # 140: H
  9.62110600 16.66424600 -0.36972300 1 # 141: Si
 11.54533100 17.77519300  0.36972400 1 # 142: Si
  9.62110600 16.66424500 -1.87701200 2 # 143: H
 11.54533000 17.77519400  1.87701200 2 # 144: H
%endblock AtomicCoordinatesAndAtomicSpecies

NumberOfSpecies 2
%block ChemicalSpeciesLabel
 1 14 Si
 2 1 H
%endblock ChemicalSpeciesLabel
