LatticeConstant 1.0 Ang
%block LatticeVectors
 23.13000000 0.00000000 0.00000000
 -11.56500000 20.03116759 0.00000000
 0.00000000 0.00000000 20.00000000
%endblock LatticeVectors

NumberOfAtoms 144
AtomicCoordinatesFormat Ang
%block AtomicCoordinatesAndAtomicSpecies
  0.00000000  0.00000000 -0.22350000 1 #   1: Si
  1.92750000  1.11284264  0.22350000 1 #   2: Si
  0.00000000  0.00000000 -1.68350000 2 #   3: H
  1.92750000  1.11284264  1.68350000 2 #   4: H
  3.85500000  0.00000000 -0.22350000 1 #   5: Si
  5.78250000  1.11284264  0.22350000 1 #   6: Si
  3.85500000  0.00000000 -1.68350000 2 #   7: H
  5.78250000  1.11284264  1.68350000 2 #   8: H
  7.71000000  0.00000000 -0.22350000 1 #   9: Si
  9.63750000  1.11284264  0.22350000 1 #  10: Si
  7.71000000  0.00000000 -1.68350000 2 #  11: H
  9.63750000  1.11284264  1.68350000 2 #  12: H
 11.56500000  0.00000000 -0.22350000 1 #  13: Si
 13.49250000  1.11284264  0.22350000 1 #  14: Si
 11.56500000  0.00000000 -1.68350000 2 #  15: H
 13.49250000  1.11284264  1.68350000 2 #  16: H
 15.42000000  0.00000000 -0.22350000 1 #  17: Si
 17.34750000  1.11284264  0.22350000 1 #  18: Si
 15.42000000  0.00000000 -1.68350000 2 #  19: H
 17.34750000  1.11284264  1.68350000 2 #  20: H
 19.27500000  0.00000000 -0.22350000 1 #  21: Si
 21.20250000  1.11284264  0.22350000 1 #  22: Si
 19.27500000  0.00000000 -1.68350000 2 #  23: H
 21.20250000  1.11284264  1.68350000 2 #  24: H
 -1.92750000  3.33852793 -0.22350000 1 #  25: Si
  0.00000000  4.45137058  0.22350000 1 #  26: Si
 -1.92750000  3.33852793 -1.68350000 2 #  27: H
  0.00000000  4.45137058  1.68350000 2 #  28: H
  1.92750000  3.33852793 -0.22350000 1 #  29: Si
  3.85500000  4.45137058  0.22350000 1 #  30: Si
  1.92750000  3.33852793 -1.68350000 2 #  31: H
  3.85500000  4.45137058  1.68350000 2 #  32: H
  5.78250000  3.33852793 -0.22350000 1 #  33: Si
  7.71000000  4.45137058  0.22350000 1 #  34: Si
  5.78250000  3.33852793 -1.68350000 2 #  35: H
  7.71000000  4.45137058  1.68350000 2 #  36: H
  9.63750000  3.33852793 -0.22350000 1 #  37: Si
 11.56500000  4.45137058  0.22350000 1 #  38: Si
  9.63750000  3.33852793 -1.68350000 2 #  39: H
 11.56500000  4.45137058  1.68350000 2 #  40: H
 13.49250000  3.33852793 -0.22350000 1 #  41: Si
 15.42000000  4.45137058  0.22350000 1 #  42: Si
 13.49250000  3.33852793 -1.68350000 2 #  43: H
 15.42000000  4.45137058  1.68350000 2 #  44: H
 17.34750000  3.33852793 -0.22350000 1 #  45: Si
 19.27500000  4.45137058  0.22350000 1 #  46: Si
 17.34750000  3.33852793 -1.68350000 2 #  47: H
 19.27500000  4.45137058  1.68350000 2 #  48: H
 -3.85500000  6.67705586 -0.22350000 1 #  49: Si
 -1.92750000  7.78989851  0.22350000 1 #  50: Si
 -3.85500000  6.67705586 -1.68350000 2 #  51: H
 -1.92750000  7.78989851  1.68350000 2 #  52: H
  0.00000000  6.67705586 -0.22350000 1 #  53: Si
  1.92750000  7.78989851  0.22350000 1 #  54: Si
  0.00000000  6.67705586 -1.68350000 2 #  55: H
  1.92750000  7.78989851  1.68350000 2 #  56: H
  3.85500000  6.67705586 -0.22350000 1 #  57: Si
  5.78250000  7.78989851  0.22350000 1 #  58: Si
  3.85500000  6.67705586 -1.68350000 2 #  59: H
  5.78250000  7.78989851  1.68350000 2 #  60: H
  7.71000000  6.67705586 -0.22350000 1 #  61: Si
  9.63750000  7.78989851  0.22350000 1 #  62: Si
  7.71000000  6.67705586 -1.68350000 2 #  63: H
  9.63750000  7.78989851  1.68350000 2 #  64: H
 11.56500000  6.67705586 -0.22350000 1 #  65: Si
 13.49250000  7.78989851  0.22350000 1 #  66: Si
 11.56500000  6.67705586 -1.68350000 2 #  67: H
 13.49250000  7.78989851  1.68350000 2 #  68: H
 15.42000000  6.67705586 -0.22350000 1 #  69: Si
 17.34750000  7.78989851  0.22350000 1 #  70: Si
 15.42000000  6.67705586 -1.68350000 2 #  71: H
 17.34750000  7.78989851  1.68350000 2 #  72: H
 -5.78250000 10.01558379 -0.22350000 1 #  73: Si
 -3.85500000 11.12842644  0.22350000 1 #  74: Si
 -5.78250000 10.01558379 -1.68350000 2 #  75: H
 -3.85500000 11.12842644  1.68350000 2 #  76: H
 -1.92750000 10.01558379 -0.22350000 1 #  77: Si
  0.00000000 11.12842644  0.22350000 1 #  78: Si
 -1.92750000 10.01558379 -1.68350000 2 #  79: H
  0.00000000 11.12842644  1.68350000 2 #  80: H
  1.92750000 10.01558379 -0.22350000 1 #  81: Si
  3.85500000 11.12842644  0.22350000 1 #  82: Si
  1.92750000 10.01558379 -1.68350000 2 #  83: H
  3.85500000 11.12842644  1.68350000 2 #  84: H
  5.78250000 10.01558379 -0.22350000 1 #  85: Si
  7.71000000 11.12842644  0.22350000 1 #  86: Si
  5.78250000 10.01558379 -1.68350000 2 #  87: H
  7.71000000 11.12842644  1.68350000 2 #  88: H
  9.63750000 10.01558379 -0.22350000 1 #  89: Si
 11.56500000 11.12842644  0.22350000 1 #  90: Si
  9.63750000 10.01558379 -1.68350000 2 #  91: H
 11.56500000 11.12842644  1.68350000 2 #  92: H
 13.49250000 10.01558379 -0.22350000 1 #  93: Si
 15.42000000 11.12842644  0.22350000 1 #  94: Si
 13.49250000 10.01558379 -1.68350000 2 #  95: H
 15.42000000 11.12842644  1.68350000 2 #  96: H
 -7.71000000 13.35411173 -0.22350000 1 #  97: Si
 -5.78250000 14.46695437  0.22350000 1 #  98: Si
 -7.71000000 13.35411173 -1.68350000 2 #  99: H
 -5.78250000 14.46695437  1.68350000 2 # 100: H
 -3.85500000 13.35411173 -0.22350000 1 # 101: Si
 -1.92750000 14.46695437  0.22350000 1 # 102: Si
 -3.85500000 13.35411173 -1.68350000 2 # 103: H
 -1.92750000 14.46695437  1.68350000 2 # 104: H
  0.00000000 13.35411173 -0.22350000 1 # 105: Si
  1.92750000 14.46695437  0.22350000 1 # 106: Si
  0.00000000 13.35411173 -1.68350000 2 # 107: H
  1.92750000 14.46695437  1.68350000 2 # 108: H
  3.85500000 13.35411173 -0.22350000 1 # 109: Si
  5.78250000 14.46695437  0.22350000 1 # 110: Si
  3.85500000 13.35411173 -1.68350000 2 # 111: H
  5.78250000 14.46695437  1.68350000 2 # 112: H
  7.71000000 13.35411173 -0.22350000 1 # 113: Si
  9.63750000 14.46695437  0.22350000 1 # 114: Si
  7.71000000 13.35411173 -1.68350000 2 # 115: H
  9.63750000 14.46695437  1.68350000 2 # 116: H
 11.56500000 13.35411173 -0.22350000 1 # 117: Si
 13.49250000 14.46695437  0.22350000 1 # 118: Si
 11.56500000 13.35411173 -1.68350000 2 # 119: H
 13.49250000 14.46695437  1.68350000 2 # 120: H
 -9.63750000 16.69263966 -0.22350000 1 # 121: Si
 -7.71000000 17.80548230  0.22350000 1 # 122: Si
 -9.63750000 16.69263966 -1.68350000 2 # 123: H
 -7.71000000 17.80548230  1.68350000 2 # 124: H
 -5.78250000 16.69263966 -0.22350000 1 # 125: Si
 -3.85500000 17.80548230  0.22350000 1 # 126: Si
 -5.78250000 16.69263966 -1.68350000 2 # 127: H
 -3.85500000 17.80548230  1.68350000 2 # 128: H
 -1.92750000 16.69263966 -0.22350000 1 # 129: Si
  0.00000000 17.80548230  0.22350000 1 # 130: Si
 -1.92750000 16.69263966 -1.68350000 2 # 131: H
  0.00000000 17.80548230  1.68350000 2 # 132: H
  1.92750000 16.69263966 -0.22350000 1 # 133: Si
  3.85500000 17.80548230  0.22350000 1 # 134: Si
  1.92750000 16.69263966 -1.68350000 2 # 135: H
  3.85500000 17.80548230  1.68350000 2 # 136: H
  5.78250000 16.69263966 -0.22350000 1 # 137: Si
  7.71000000 17.80548230  0.22350000 1 # 138: Si
  5.78250000 16.69263966 -1.68350000 2 # 139: H
  7.71000000 17.80548230  1.68350000 2 # 140: H
  9.63750000 16.69263966 -0.22350000 1 # 141: Si
 11.56500000 17.80548230  0.22350000 1 # 142: Si
  9.63750000 16.69263966 -1.68350000 2 # 143: H
 11.56500000 17.80548230  1.68350000 2 # 144: H
%endblock AtomicCoordinatesAndAtomicSpecies

NumberOfSpecies 2
%block ChemicalSpeciesLabel
 1 14 Si
 2 1 H
%endblock ChemicalSpeciesLabel
